\* Probes_Placement_Model *\
Maximize
Peso_total: 14 combinacoes_10_11_1 + 12 combinacoes_10_11_18_1
 + 6 combinacoes_10_11_18_19_1 + 40 combinacoes_10_11_18_19_2
 + 3 combinacoes_10_11_18_19_20_1 + 46 combinacoes_10_11_18_19_20_2
 + 35 combinacoes_10_11_18_19_20_3 + 28 combinacoes_10_11_18_19_20_4
 + 18 combinacoes_10_11_18_19_20_5 + 28 combinacoes_10_11_18_19_20_6
 + 17 combinacoes_10_11_18_19_20_7 + 12 combinacoes_10_11_18_19_20_8
 + 22 combinacoes_10_11_18_19_3 + 22 combinacoes_10_11_18_19_4
 + 30 combinacoes_10_11_18_2 + 3 combinacoes_10_11_18_21_1
 + 37 combinacoes_10_11_18_21_2 + 18 combinacoes_10_11_18_21_3
 + 19 combinacoes_10_11_18_21_4 + 3 combinacoes_10_12_1
 + combinacoes_11_10_12_1 + 17 combinacoes_11_10_12_2 + 16 combinacoes_11_18_1
 + 8 combinacoes_11_18_19_1 + 26 combinacoes_11_18_19_2
 + 4 combinacoes_11_18_19_20_1 + 32 combinacoes_11_18_19_20_2
 + 21 combinacoes_11_18_19_20_3 + 14 combinacoes_11_18_19_20_4
 + 4 combinacoes_11_18_21_1 + 23 combinacoes_11_18_21_2
 + 4 combinacoes_12_10_11_18_1 + 2 combinacoes_12_10_11_18_19_1
 + 43 combinacoes_12_10_11_18_19_2 + combinacoes_12_10_11_18_19_20_1
 + 33 combinacoes_12_10_11_18_19_20_10 + 22 combinacoes_12_10_11_18_19_20_11
 + 15 combinacoes_12_10_11_18_19_20_12 + 5 combinacoes_12_10_11_18_19_20_13
 + 20 combinacoes_12_10_11_18_19_20_14 + 9 combinacoes_12_10_11_18_19_20_15
 + 8 combinacoes_12_10_11_18_19_20_16 + 49 combinacoes_12_10_11_18_19_20_2
 + 38 combinacoes_12_10_11_18_19_20_3 + 31 combinacoes_12_10_11_18_19_20_4
 + 21 combinacoes_12_10_11_18_19_20_5 + 31 combinacoes_12_10_11_18_19_20_6
 + 20 combinacoes_12_10_11_18_19_20_7 + 15 combinacoes_12_10_11_18_19_20_8
 + 6 combinacoes_12_10_11_18_19_20_9 + 25 combinacoes_12_10_11_18_19_3
 + 25 combinacoes_12_10_11_18_19_4 + 9 combinacoes_12_10_11_18_19_5
 + 27 combinacoes_12_10_11_18_19_6 + 9 combinacoes_12_10_11_18_19_7
 + 14 combinacoes_12_10_11_18_19_8 + 33 combinacoes_12_10_11_18_2
 + combinacoes_12_10_11_18_21_1 + 40 combinacoes_12_10_11_18_21_2
 + 21 combinacoes_12_10_11_18_21_3 + 22 combinacoes_12_10_11_18_21_4
 + 6 combinacoes_12_10_11_18_21_5 + 24 combinacoes_12_10_11_18_21_6
 + 5 combinacoes_12_10_11_18_21_7 + 11 combinacoes_12_10_11_18_21_8
 + 15 combinacoes_12_10_11_18_3 + 17 combinacoes_12_10_11_18_4
 + 10 combinacoes_18_19_1 + 5 combinacoes_18_19_20_1
 + 16 combinacoes_18_19_20_2 + 7 combinacoes_18_21_1
 + 2 combinacoes_19_18_21_1 + 17 combinacoes_19_18_21_2
 + 6 combinacoes_19_20_1 + combinacoes_20_19_18_21_1
 + 23 combinacoes_20_19_18_21_2 + 8 combinacoes_20_19_18_21_3
 + 12 combinacoes_20_19_18_21_4 + 7 combinacoes_9_10_1
 + 5 combinacoes_9_10_11_1 + 4 combinacoes_9_10_11_18_1
 + 2 combinacoes_9_10_11_18_19_1 + 47 combinacoes_9_10_11_18_19_2
 + combinacoes_9_10_11_18_19_20_1 + 37 combinacoes_9_10_11_18_19_20_10
 + 26 combinacoes_9_10_11_18_19_20_11 + 19 combinacoes_9_10_11_18_19_20_12
 + 9 combinacoes_9_10_11_18_19_20_13 + 20 combinacoes_9_10_11_18_19_20_14
 + 9 combinacoes_9_10_11_18_19_20_15 + 8 combinacoes_9_10_11_18_19_20_16
 + 53 combinacoes_9_10_11_18_19_20_2 + 42 combinacoes_9_10_11_18_19_20_3
 + 35 combinacoes_9_10_11_18_19_20_4 + 25 combinacoes_9_10_11_18_19_20_5
 + 35 combinacoes_9_10_11_18_19_20_6 + 24 combinacoes_9_10_11_18_19_20_7
 + 19 combinacoes_9_10_11_18_19_20_8 + 10 combinacoes_9_10_11_18_19_20_9
 + 29 combinacoes_9_10_11_18_19_3 + 29 combinacoes_9_10_11_18_19_4
 + 13 combinacoes_9_10_11_18_19_5 + 31 combinacoes_9_10_11_18_19_6
 + 13 combinacoes_9_10_11_18_19_7 + 14 combinacoes_9_10_11_18_19_8
 + 37 combinacoes_9_10_11_18_2 + combinacoes_9_10_11_18_21_1
 + 44 combinacoes_9_10_11_18_21_2 + 25 combinacoes_9_10_11_18_21_3
 + 26 combinacoes_9_10_11_18_21_4 + 10 combinacoes_9_10_11_18_21_5
 + 28 combinacoes_9_10_11_18_21_6 + 9 combinacoes_9_10_11_18_21_7
 + 11 combinacoes_9_10_11_18_21_8 + 19 combinacoes_9_10_11_18_3
 + 21 combinacoes_9_10_11_18_4 + 21 combinacoes_9_10_11_2
 + combinacoes_9_10_12_1 + 10 combinacoes_9_10_12_2
Subject To
Max_Probes_Router10: combinacoes_10_11_18_19_2 + combinacoes_10_11_18_19_20_2
 + combinacoes_10_11_18_19_20_3 + combinacoes_10_11_18_19_20_4
 + combinacoes_10_11_18_19_20_5 + combinacoes_10_11_18_19_20_6
 + combinacoes_10_11_18_19_20_7 + combinacoes_10_11_18_19_20_8
 + combinacoes_10_11_18_19_3 + combinacoes_10_11_18_19_4
 + combinacoes_10_11_18_2 + combinacoes_10_11_18_21_2
 + combinacoes_10_11_18_21_3 + combinacoes_10_11_18_21_4
 + 2 combinacoes_11_10_12_2 + 2 combinacoes_12_10_11_18_19_2
 + 2 combinacoes_12_10_11_18_19_20_2 + 2 combinacoes_12_10_11_18_19_20_3
 + 2 combinacoes_12_10_11_18_19_20_4 + 2 combinacoes_12_10_11_18_19_20_5
 + 2 combinacoes_12_10_11_18_19_20_6 + 2 combinacoes_12_10_11_18_19_20_7
 + 2 combinacoes_12_10_11_18_19_20_8 + 2 combinacoes_12_10_11_18_19_20_9
 + 2 combinacoes_12_10_11_18_19_3 + 2 combinacoes_12_10_11_18_19_4
 + 2 combinacoes_12_10_11_18_19_5 + 2 combinacoes_12_10_11_18_2
 + 2 combinacoes_12_10_11_18_21_2 + 2 combinacoes_12_10_11_18_21_3
 + 2 combinacoes_12_10_11_18_21_4 + 2 combinacoes_12_10_11_18_21_5
 + 2 combinacoes_12_10_11_18_3 + 2 combinacoes_9_10_11_18_19_2
 + 2 combinacoes_9_10_11_18_19_20_2 + 2 combinacoes_9_10_11_18_19_20_3
 + 2 combinacoes_9_10_11_18_19_20_4 + 2 combinacoes_9_10_11_18_19_20_5
 + 2 combinacoes_9_10_11_18_19_20_6 + 2 combinacoes_9_10_11_18_19_20_7
 + 2 combinacoes_9_10_11_18_19_20_8 + 2 combinacoes_9_10_11_18_19_20_9
 + 2 combinacoes_9_10_11_18_19_3 + 2 combinacoes_9_10_11_18_19_4
 + 2 combinacoes_9_10_11_18_19_5 + 2 combinacoes_9_10_11_18_2
 + 2 combinacoes_9_10_11_18_21_2 + 2 combinacoes_9_10_11_18_21_3
 + 2 combinacoes_9_10_11_18_21_4 + 2 combinacoes_9_10_11_18_21_5
 + 2 combinacoes_9_10_11_18_3 + 2 combinacoes_9_10_11_2
 + 2 combinacoes_9_10_12_2 <= 1
Max_Probes_Router11: 2 combinacoes_10_11_18_19_2
 + 2 combinacoes_10_11_18_19_20_2 + 2 combinacoes_10_11_18_19_20_3
 + 2 combinacoes_10_11_18_19_20_4 + 2 combinacoes_10_11_18_19_20_5
 + 2 combinacoes_10_11_18_19_3 + 2 combinacoes_10_11_18_2
 + 2 combinacoes_10_11_18_21_2 + 2 combinacoes_10_11_18_21_3
 + combinacoes_11_10_12_2 + combinacoes_11_18_19_2 + combinacoes_11_18_19_20_2
 + combinacoes_11_18_19_20_3 + combinacoes_11_18_19_20_4
 + combinacoes_11_18_21_2 + 2 combinacoes_12_10_11_18_19_2
 + 2 combinacoes_12_10_11_18_19_20_10 + 2 combinacoes_12_10_11_18_19_20_11
 + 2 combinacoes_12_10_11_18_19_20_12 + 2 combinacoes_12_10_11_18_19_20_13
 + 2 combinacoes_12_10_11_18_19_20_2 + 2 combinacoes_12_10_11_18_19_20_3
 + 2 combinacoes_12_10_11_18_19_20_4 + 2 combinacoes_12_10_11_18_19_20_5
 + 2 combinacoes_12_10_11_18_19_3 + 2 combinacoes_12_10_11_18_19_6
 + 2 combinacoes_12_10_11_18_19_7 + 2 combinacoes_12_10_11_18_2
 + 2 combinacoes_12_10_11_18_21_2 + 2 combinacoes_12_10_11_18_21_3
 + 2 combinacoes_12_10_11_18_21_6 + 2 combinacoes_12_10_11_18_21_7
 + 2 combinacoes_12_10_11_18_4 + 2 combinacoes_9_10_11_18_19_2
 + 2 combinacoes_9_10_11_18_19_20_10 + 2 combinacoes_9_10_11_18_19_20_11
 + 2 combinacoes_9_10_11_18_19_20_12 + 2 combinacoes_9_10_11_18_19_20_13
 + 2 combinacoes_9_10_11_18_19_20_2 + 2 combinacoes_9_10_11_18_19_20_3
 + 2 combinacoes_9_10_11_18_19_20_4 + 2 combinacoes_9_10_11_18_19_20_5
 + 2 combinacoes_9_10_11_18_19_3 + 2 combinacoes_9_10_11_18_19_6
 + 2 combinacoes_9_10_11_18_19_7 + 2 combinacoes_9_10_11_18_2
 + 2 combinacoes_9_10_11_18_21_2 + 2 combinacoes_9_10_11_18_21_3
 + 2 combinacoes_9_10_11_18_21_6 + 2 combinacoes_9_10_11_18_21_7
 + 2 combinacoes_9_10_11_18_4 + combinacoes_9_10_11_2 <= 1
Max_Probes_Router12: combinacoes_11_10_12_2 + combinacoes_12_10_11_18_19_2
 + combinacoes_12_10_11_18_19_20_10 + combinacoes_12_10_11_18_19_20_11
 + combinacoes_12_10_11_18_19_20_12 + combinacoes_12_10_11_18_19_20_13
 + combinacoes_12_10_11_18_19_20_14 + combinacoes_12_10_11_18_19_20_15
 + combinacoes_12_10_11_18_19_20_16 + combinacoes_12_10_11_18_19_20_2
 + combinacoes_12_10_11_18_19_20_3 + combinacoes_12_10_11_18_19_20_4
 + combinacoes_12_10_11_18_19_20_5 + combinacoes_12_10_11_18_19_20_6
 + combinacoes_12_10_11_18_19_20_7 + combinacoes_12_10_11_18_19_20_8
 + combinacoes_12_10_11_18_19_20_9 + combinacoes_12_10_11_18_19_3
 + combinacoes_12_10_11_18_19_4 + combinacoes_12_10_11_18_19_5
 + combinacoes_12_10_11_18_19_6 + combinacoes_12_10_11_18_19_7
 + combinacoes_12_10_11_18_19_8 + combinacoes_12_10_11_18_2
 + combinacoes_12_10_11_18_21_2 + combinacoes_12_10_11_18_21_3
 + combinacoes_12_10_11_18_21_4 + combinacoes_12_10_11_18_21_5
 + combinacoes_12_10_11_18_21_6 + combinacoes_12_10_11_18_21_7
 + combinacoes_12_10_11_18_21_8 + combinacoes_12_10_11_18_3
 + combinacoes_12_10_11_18_4 + combinacoes_9_10_12_2 <= 0
Max_Probes_Router18: 2 combinacoes_10_11_18_19_2
 + 2 combinacoes_10_11_18_19_20_2 + 2 combinacoes_10_11_18_19_20_3
 + 2 combinacoes_10_11_18_19_20_6 + 2 combinacoes_10_11_18_19_20_7
 + 2 combinacoes_10_11_18_19_4 + combinacoes_10_11_18_2
 + 2 combinacoes_10_11_18_21_2 + 2 combinacoes_10_11_18_21_4
 + 2 combinacoes_11_18_19_2 + 2 combinacoes_11_18_19_20_2
 + 2 combinacoes_11_18_19_20_3 + 2 combinacoes_11_18_21_2
 + 2 combinacoes_12_10_11_18_19_2 + 2 combinacoes_12_10_11_18_19_20_10
 + 2 combinacoes_12_10_11_18_19_20_11 + 2 combinacoes_12_10_11_18_19_20_14
 + 2 combinacoes_12_10_11_18_19_20_15 + 2 combinacoes_12_10_11_18_19_20_2
 + 2 combinacoes_12_10_11_18_19_20_3 + 2 combinacoes_12_10_11_18_19_20_6
 + 2 combinacoes_12_10_11_18_19_20_7 + 2 combinacoes_12_10_11_18_19_4
 + 2 combinacoes_12_10_11_18_19_6 + 2 combinacoes_12_10_11_18_19_8
 + combinacoes_12_10_11_18_2 + 2 combinacoes_12_10_11_18_21_2
 + 2 combinacoes_12_10_11_18_21_4 + 2 combinacoes_12_10_11_18_21_6
 + 2 combinacoes_12_10_11_18_21_8 + combinacoes_12_10_11_18_3
 + combinacoes_12_10_11_18_4 + combinacoes_18_19_20_2
 + 2 combinacoes_19_18_21_2 + 2 combinacoes_20_19_18_21_2
 + 2 combinacoes_20_19_18_21_4 + 2 combinacoes_9_10_11_18_19_2
 + 2 combinacoes_9_10_11_18_19_20_10 + 2 combinacoes_9_10_11_18_19_20_11
 + 2 combinacoes_9_10_11_18_19_20_14 + 2 combinacoes_9_10_11_18_19_20_15
 + 2 combinacoes_9_10_11_18_19_20_2 + 2 combinacoes_9_10_11_18_19_20_3
 + 2 combinacoes_9_10_11_18_19_20_6 + 2 combinacoes_9_10_11_18_19_20_7
 + 2 combinacoes_9_10_11_18_19_4 + 2 combinacoes_9_10_11_18_19_6
 + 2 combinacoes_9_10_11_18_19_8 + combinacoes_9_10_11_18_2
 + 2 combinacoes_9_10_11_18_21_2 + 2 combinacoes_9_10_11_18_21_4
 + 2 combinacoes_9_10_11_18_21_6 + 2 combinacoes_9_10_11_18_21_8
 + combinacoes_9_10_11_18_3 + combinacoes_9_10_11_18_4 <= 1
Max_Probes_Router19: combinacoes_10_11_18_19_2
 + 2 combinacoes_10_11_18_19_20_2 + 2 combinacoes_10_11_18_19_20_4
 + 2 combinacoes_10_11_18_19_20_6 + 2 combinacoes_10_11_18_19_20_8
 + combinacoes_10_11_18_19_3 + combinacoes_10_11_18_19_4
 + combinacoes_11_18_19_2 + 2 combinacoes_11_18_19_20_2
 + 2 combinacoes_11_18_19_20_4 + combinacoes_12_10_11_18_19_2
 + 2 combinacoes_12_10_11_18_19_20_10 + 2 combinacoes_12_10_11_18_19_20_12
 + 2 combinacoes_12_10_11_18_19_20_14 + 2 combinacoes_12_10_11_18_19_20_16
 + 2 combinacoes_12_10_11_18_19_20_2 + 2 combinacoes_12_10_11_18_19_20_4
 + 2 combinacoes_12_10_11_18_19_20_6 + 2 combinacoes_12_10_11_18_19_20_8
 + combinacoes_12_10_11_18_19_3 + combinacoes_12_10_11_18_19_4
 + combinacoes_12_10_11_18_19_5 + combinacoes_12_10_11_18_19_6
 + combinacoes_12_10_11_18_19_7 + combinacoes_12_10_11_18_19_8
 + 2 combinacoes_18_19_20_2 + combinacoes_19_18_21_2
 + 2 combinacoes_20_19_18_21_2 + 2 combinacoes_20_19_18_21_3
 + combinacoes_9_10_11_18_19_2 + 2 combinacoes_9_10_11_18_19_20_10
 + 2 combinacoes_9_10_11_18_19_20_12 + 2 combinacoes_9_10_11_18_19_20_14
 + 2 combinacoes_9_10_11_18_19_20_16 + 2 combinacoes_9_10_11_18_19_20_2
 + 2 combinacoes_9_10_11_18_19_20_4 + 2 combinacoes_9_10_11_18_19_20_6
 + 2 combinacoes_9_10_11_18_19_20_8 + combinacoes_9_10_11_18_19_3
 + combinacoes_9_10_11_18_19_4 + combinacoes_9_10_11_18_19_5
 + combinacoes_9_10_11_18_19_6 + combinacoes_9_10_11_18_19_7
 + combinacoes_9_10_11_18_19_8 <= 1
Max_Probes_Router20: combinacoes_10_11_18_19_20_2
 + combinacoes_10_11_18_19_20_3 + combinacoes_10_11_18_19_20_4
 + combinacoes_10_11_18_19_20_5 + combinacoes_10_11_18_19_20_6
 + combinacoes_10_11_18_19_20_7 + combinacoes_10_11_18_19_20_8
 + combinacoes_11_18_19_20_2 + combinacoes_11_18_19_20_3
 + combinacoes_11_18_19_20_4 + combinacoes_12_10_11_18_19_20_10
 + combinacoes_12_10_11_18_19_20_11 + combinacoes_12_10_11_18_19_20_12
 + combinacoes_12_10_11_18_19_20_13 + combinacoes_12_10_11_18_19_20_14
 + combinacoes_12_10_11_18_19_20_15 + combinacoes_12_10_11_18_19_20_16
 + combinacoes_12_10_11_18_19_20_2 + combinacoes_12_10_11_18_19_20_3
 + combinacoes_12_10_11_18_19_20_4 + combinacoes_12_10_11_18_19_20_5
 + combinacoes_12_10_11_18_19_20_6 + combinacoes_12_10_11_18_19_20_7
 + combinacoes_12_10_11_18_19_20_8 + combinacoes_12_10_11_18_19_20_9
 + combinacoes_18_19_20_2 + combinacoes_20_19_18_21_2
 + combinacoes_20_19_18_21_3 + combinacoes_20_19_18_21_4
 + combinacoes_9_10_11_18_19_20_10 + combinacoes_9_10_11_18_19_20_11
 + combinacoes_9_10_11_18_19_20_12 + combinacoes_9_10_11_18_19_20_13
 + combinacoes_9_10_11_18_19_20_14 + combinacoes_9_10_11_18_19_20_15
 + combinacoes_9_10_11_18_19_20_16 + combinacoes_9_10_11_18_19_20_2
 + combinacoes_9_10_11_18_19_20_3 + combinacoes_9_10_11_18_19_20_4
 + combinacoes_9_10_11_18_19_20_5 + combinacoes_9_10_11_18_19_20_6
 + combinacoes_9_10_11_18_19_20_7 + combinacoes_9_10_11_18_19_20_8
 + combinacoes_9_10_11_18_19_20_9 <= 0
Max_Probes_Router21: combinacoes_10_11_18_21_2 + combinacoes_10_11_18_21_3
 + combinacoes_10_11_18_21_4 + combinacoes_11_18_21_2
 + combinacoes_12_10_11_18_21_2 + combinacoes_12_10_11_18_21_3
 + combinacoes_12_10_11_18_21_4 + combinacoes_12_10_11_18_21_5
 + combinacoes_12_10_11_18_21_6 + combinacoes_12_10_11_18_21_7
 + combinacoes_12_10_11_18_21_8 + combinacoes_19_18_21_2
 + combinacoes_20_19_18_21_2 + combinacoes_20_19_18_21_3
 + combinacoes_20_19_18_21_4 + combinacoes_9_10_11_18_21_2
 + combinacoes_9_10_11_18_21_3 + combinacoes_9_10_11_18_21_4
 + combinacoes_9_10_11_18_21_5 + combinacoes_9_10_11_18_21_6
 + combinacoes_9_10_11_18_21_7 + combinacoes_9_10_11_18_21_8 <= 0
Max_Probes_Router9: combinacoes_9_10_1 + combinacoes_9_10_11_1
 + combinacoes_9_10_11_18_1 + 2 combinacoes_9_10_11_18_19_1
 + combinacoes_9_10_11_18_19_2 + 2 combinacoes_9_10_11_18_19_20_1
 + combinacoes_9_10_11_18_19_20_10 + combinacoes_9_10_11_18_19_20_11
 + combinacoes_9_10_11_18_19_20_12 + combinacoes_9_10_11_18_19_20_13
 + combinacoes_9_10_11_18_19_20_14 + combinacoes_9_10_11_18_19_20_15
 + combinacoes_9_10_11_18_19_20_16 + combinacoes_9_10_11_18_19_20_2
 + combinacoes_9_10_11_18_19_20_3 + combinacoes_9_10_11_18_19_20_4
 + combinacoes_9_10_11_18_19_20_5 + combinacoes_9_10_11_18_19_20_6
 + combinacoes_9_10_11_18_19_20_7 + combinacoes_9_10_11_18_19_20_8
 + combinacoes_9_10_11_18_19_20_9 + combinacoes_9_10_11_18_19_3
 + combinacoes_9_10_11_18_19_4 + combinacoes_9_10_11_18_19_5
 + combinacoes_9_10_11_18_19_6 + combinacoes_9_10_11_18_19_7
 + combinacoes_9_10_11_18_19_8 + combinacoes_9_10_11_18_2
 + combinacoes_9_10_11_18_21_1 + combinacoes_9_10_11_18_21_2
 + combinacoes_9_10_11_18_21_3 + combinacoes_9_10_11_18_21_4
 + combinacoes_9_10_11_18_21_5 + combinacoes_9_10_11_18_21_6
 + combinacoes_9_10_11_18_21_7 + combinacoes_9_10_11_18_21_8
 + combinacoes_9_10_11_18_3 + combinacoes_9_10_11_18_4 + combinacoes_9_10_11_2
 + combinacoes_9_10_12_1 + combinacoes_9_10_12_2 <= 0
Max_Uma_Sonda_Por_MEdicao10_11: combinacoes_10_11_1 + combinacoes_10_11_10
 + combinacoes_10_11_11 + combinacoes_10_11_12 + combinacoes_10_11_13
 + combinacoes_10_11_14 + combinacoes_10_11_15 + combinacoes_10_11_16
 + combinacoes_10_11_2 + combinacoes_10_11_3 + combinacoes_10_11_4
 + combinacoes_10_11_5 + combinacoes_10_11_6 + combinacoes_10_11_7
 + combinacoes_10_11_8 + combinacoes_10_11_9 <= 1
Max_Uma_Sonda_Por_MEdicao10_11_18: combinacoes_10_11_18_1
 + combinacoes_10_11_18_10 + combinacoes_10_11_18_11 + combinacoes_10_11_18_12
 + combinacoes_10_11_18_13 + combinacoes_10_11_18_14 + combinacoes_10_11_18_15
 + combinacoes_10_11_18_16 + combinacoes_10_11_18_2 + combinacoes_10_11_18_3
 + combinacoes_10_11_18_4 + combinacoes_10_11_18_5 + combinacoes_10_11_18_6
 + combinacoes_10_11_18_7 + combinacoes_10_11_18_8 + combinacoes_10_11_18_9
 <= 1
Max_Uma_Sonda_Por_MEdicao10_11_18_19: combinacoes_10_11_18_19_1
 + combinacoes_10_11_18_19_10 + combinacoes_10_11_18_19_11
 + combinacoes_10_11_18_19_12 + combinacoes_10_11_18_19_13
 + combinacoes_10_11_18_19_14 + combinacoes_10_11_18_19_15
 + combinacoes_10_11_18_19_16 + combinacoes_10_11_18_19_2
 + combinacoes_10_11_18_19_3 + combinacoes_10_11_18_19_4
 + combinacoes_10_11_18_19_5 + combinacoes_10_11_18_19_6
 + combinacoes_10_11_18_19_7 + combinacoes_10_11_18_19_8
 + combinacoes_10_11_18_19_9 <= 1
Max_Uma_Sonda_Por_MEdicao10_11_18_19_20: combinacoes_10_11_18_19_20_1
 + combinacoes_10_11_18_19_20_10 + combinacoes_10_11_18_19_20_11
 + combinacoes_10_11_18_19_20_12 + combinacoes_10_11_18_19_20_13
 + combinacoes_10_11_18_19_20_14 + combinacoes_10_11_18_19_20_15
 + combinacoes_10_11_18_19_20_16 + combinacoes_10_11_18_19_20_2
 + combinacoes_10_11_18_19_20_3 + combinacoes_10_11_18_19_20_4
 + combinacoes_10_11_18_19_20_5 + combinacoes_10_11_18_19_20_6
 + combinacoes_10_11_18_19_20_7 + combinacoes_10_11_18_19_20_8
 + combinacoes_10_11_18_19_20_9 <= 1
Max_Uma_Sonda_Por_MEdicao10_11_18_21: combinacoes_10_11_18_21_1
 + combinacoes_10_11_18_21_10 + combinacoes_10_11_18_21_11
 + combinacoes_10_11_18_21_12 + combinacoes_10_11_18_21_13
 + combinacoes_10_11_18_21_14 + combinacoes_10_11_18_21_15
 + combinacoes_10_11_18_21_16 + combinacoes_10_11_18_21_2
 + combinacoes_10_11_18_21_3 + combinacoes_10_11_18_21_4
 + combinacoes_10_11_18_21_5 + combinacoes_10_11_18_21_6
 + combinacoes_10_11_18_21_7 + combinacoes_10_11_18_21_8
 + combinacoes_10_11_18_21_9 <= 1
Max_Uma_Sonda_Por_MEdicao10_12: combinacoes_10_12_1 + combinacoes_10_12_10
 + combinacoes_10_12_11 + combinacoes_10_12_12 + combinacoes_10_12_13
 + combinacoes_10_12_14 + combinacoes_10_12_15 + combinacoes_10_12_16
 + combinacoes_10_12_2 + combinacoes_10_12_3 + combinacoes_10_12_4
 + combinacoes_10_12_5 + combinacoes_10_12_6 + combinacoes_10_12_7
 + combinacoes_10_12_8 + combinacoes_10_12_9 <= 1
Max_Uma_Sonda_Por_MEdicao11_10_12: combinacoes_11_10_12_1
 + combinacoes_11_10_12_10 + combinacoes_11_10_12_11 + combinacoes_11_10_12_12
 + combinacoes_11_10_12_13 + combinacoes_11_10_12_14 + combinacoes_11_10_12_15
 + combinacoes_11_10_12_16 + combinacoes_11_10_12_2 + combinacoes_11_10_12_3
 + combinacoes_11_10_12_4 + combinacoes_11_10_12_5 + combinacoes_11_10_12_6
 + combinacoes_11_10_12_7 + combinacoes_11_10_12_8 + combinacoes_11_10_12_9
 <= 1
Max_Uma_Sonda_Por_MEdicao11_18: combinacoes_11_18_1 + combinacoes_11_18_10
 + combinacoes_11_18_11 + combinacoes_11_18_12 + combinacoes_11_18_13
 + combinacoes_11_18_14 + combinacoes_11_18_15 + combinacoes_11_18_16
 + combinacoes_11_18_2 + combinacoes_11_18_3 + combinacoes_11_18_4
 + combinacoes_11_18_5 + combinacoes_11_18_6 + combinacoes_11_18_7
 + combinacoes_11_18_8 + combinacoes_11_18_9 <= 1
Max_Uma_Sonda_Por_MEdicao11_18_19: combinacoes_11_18_19_1
 + combinacoes_11_18_19_10 + combinacoes_11_18_19_11 + combinacoes_11_18_19_12
 + combinacoes_11_18_19_13 + combinacoes_11_18_19_14 + combinacoes_11_18_19_15
 + combinacoes_11_18_19_16 + combinacoes_11_18_19_2 + combinacoes_11_18_19_3
 + combinacoes_11_18_19_4 + combinacoes_11_18_19_5 + combinacoes_11_18_19_6
 + combinacoes_11_18_19_7 + combinacoes_11_18_19_8 + combinacoes_11_18_19_9
 <= 1
Max_Uma_Sonda_Por_MEdicao11_18_19_20: combinacoes_11_18_19_20_1
 + combinacoes_11_18_19_20_10 + combinacoes_11_18_19_20_11
 + combinacoes_11_18_19_20_12 + combinacoes_11_18_19_20_13
 + combinacoes_11_18_19_20_14 + combinacoes_11_18_19_20_15
 + combinacoes_11_18_19_20_16 + combinacoes_11_18_19_20_2
 + combinacoes_11_18_19_20_3 + combinacoes_11_18_19_20_4
 + combinacoes_11_18_19_20_5 + combinacoes_11_18_19_20_6
 + combinacoes_11_18_19_20_7 + combinacoes_11_18_19_20_8
 + combinacoes_11_18_19_20_9 <= 1
Max_Uma_Sonda_Por_MEdicao11_18_21: combinacoes_11_18_21_1
 + combinacoes_11_18_21_10 + combinacoes_11_18_21_11 + combinacoes_11_18_21_12
 + combinacoes_11_18_21_13 + combinacoes_11_18_21_14 + combinacoes_11_18_21_15
 + combinacoes_11_18_21_16 + combinacoes_11_18_21_2 + combinacoes_11_18_21_3
 + combinacoes_11_18_21_4 + combinacoes_11_18_21_5 + combinacoes_11_18_21_6
 + combinacoes_11_18_21_7 + combinacoes_11_18_21_8 + combinacoes_11_18_21_9
 <= 1
Max_Uma_Sonda_Por_MEdicao12_10_11_18: combinacoes_12_10_11_18_1
 + combinacoes_12_10_11_18_10 + combinacoes_12_10_11_18_11
 + combinacoes_12_10_11_18_12 + combinacoes_12_10_11_18_13
 + combinacoes_12_10_11_18_14 + combinacoes_12_10_11_18_15
 + combinacoes_12_10_11_18_16 + combinacoes_12_10_11_18_2
 + combinacoes_12_10_11_18_3 + combinacoes_12_10_11_18_4
 + combinacoes_12_10_11_18_5 + combinacoes_12_10_11_18_6
 + combinacoes_12_10_11_18_7 + combinacoes_12_10_11_18_8
 + combinacoes_12_10_11_18_9 <= 1
Max_Uma_Sonda_Por_MEdicao12_10_11_18_19: combinacoes_12_10_11_18_19_1
 + combinacoes_12_10_11_18_19_10 + combinacoes_12_10_11_18_19_11
 + combinacoes_12_10_11_18_19_12 + combinacoes_12_10_11_18_19_13
 + combinacoes_12_10_11_18_19_14 + combinacoes_12_10_11_18_19_15
 + combinacoes_12_10_11_18_19_16 + combinacoes_12_10_11_18_19_2
 + combinacoes_12_10_11_18_19_3 + combinacoes_12_10_11_18_19_4
 + combinacoes_12_10_11_18_19_5 + combinacoes_12_10_11_18_19_6
 + combinacoes_12_10_11_18_19_7 + combinacoes_12_10_11_18_19_8
 + combinacoes_12_10_11_18_19_9 <= 1
Max_Uma_Sonda_Por_MEdicao12_10_11_18_19_20: combinacoes_12_10_11_18_19_20_1
 + combinacoes_12_10_11_18_19_20_10 + combinacoes_12_10_11_18_19_20_11
 + combinacoes_12_10_11_18_19_20_12 + combinacoes_12_10_11_18_19_20_13
 + combinacoes_12_10_11_18_19_20_14 + combinacoes_12_10_11_18_19_20_15
 + combinacoes_12_10_11_18_19_20_16 + combinacoes_12_10_11_18_19_20_2
 + combinacoes_12_10_11_18_19_20_3 + combinacoes_12_10_11_18_19_20_4
 + combinacoes_12_10_11_18_19_20_5 + combinacoes_12_10_11_18_19_20_6
 + combinacoes_12_10_11_18_19_20_7 + combinacoes_12_10_11_18_19_20_8
 + combinacoes_12_10_11_18_19_20_9 <= 1
Max_Uma_Sonda_Por_MEdicao12_10_11_18_21: combinacoes_12_10_11_18_21_1
 + combinacoes_12_10_11_18_21_10 + combinacoes_12_10_11_18_21_11
 + combinacoes_12_10_11_18_21_12 + combinacoes_12_10_11_18_21_13
 + combinacoes_12_10_11_18_21_14 + combinacoes_12_10_11_18_21_15
 + combinacoes_12_10_11_18_21_16 + combinacoes_12_10_11_18_21_2
 + combinacoes_12_10_11_18_21_3 + combinacoes_12_10_11_18_21_4
 + combinacoes_12_10_11_18_21_5 + combinacoes_12_10_11_18_21_6
 + combinacoes_12_10_11_18_21_7 + combinacoes_12_10_11_18_21_8
 + combinacoes_12_10_11_18_21_9 <= 1
Max_Uma_Sonda_Por_MEdicao18_19: combinacoes_18_19_1 + combinacoes_18_19_10
 + combinacoes_18_19_11 + combinacoes_18_19_12 + combinacoes_18_19_13
 + combinacoes_18_19_14 + combinacoes_18_19_15 + combinacoes_18_19_16
 + combinacoes_18_19_2 + combinacoes_18_19_3 + combinacoes_18_19_4
 + combinacoes_18_19_5 + combinacoes_18_19_6 + combinacoes_18_19_7
 + combinacoes_18_19_8 + combinacoes_18_19_9 <= 1
Max_Uma_Sonda_Por_MEdicao18_19_20: combinacoes_18_19_20_1
 + combinacoes_18_19_20_10 + combinacoes_18_19_20_11 + combinacoes_18_19_20_12
 + combinacoes_18_19_20_13 + combinacoes_18_19_20_14 + combinacoes_18_19_20_15
 + combinacoes_18_19_20_16 + combinacoes_18_19_20_2 + combinacoes_18_19_20_3
 + combinacoes_18_19_20_4 + combinacoes_18_19_20_5 + combinacoes_18_19_20_6
 + combinacoes_18_19_20_7 + combinacoes_18_19_20_8 + combinacoes_18_19_20_9
 <= 1
Max_Uma_Sonda_Por_MEdicao18_21: combinacoes_18_21_1 + combinacoes_18_21_10
 + combinacoes_18_21_11 + combinacoes_18_21_12 + combinacoes_18_21_13
 + combinacoes_18_21_14 + combinacoes_18_21_15 + combinacoes_18_21_16
 + combinacoes_18_21_2 + combinacoes_18_21_3 + combinacoes_18_21_4
 + combinacoes_18_21_5 + combinacoes_18_21_6 + combinacoes_18_21_7
 + combinacoes_18_21_8 + combinacoes_18_21_9 <= 1
Max_Uma_Sonda_Por_MEdicao19_18_21: combinacoes_19_18_21_1
 + combinacoes_19_18_21_10 + combinacoes_19_18_21_11 + combinacoes_19_18_21_12
 + combinacoes_19_18_21_13 + combinacoes_19_18_21_14 + combinacoes_19_18_21_15
 + combinacoes_19_18_21_16 + combinacoes_19_18_21_2 + combinacoes_19_18_21_3
 + combinacoes_19_18_21_4 + combinacoes_19_18_21_5 + combinacoes_19_18_21_6
 + combinacoes_19_18_21_7 + combinacoes_19_18_21_8 + combinacoes_19_18_21_9
 <= 1
Max_Uma_Sonda_Por_MEdicao19_20: combinacoes_19_20_1 + combinacoes_19_20_10
 + combinacoes_19_20_11 + combinacoes_19_20_12 + combinacoes_19_20_13
 + combinacoes_19_20_14 + combinacoes_19_20_15 + combinacoes_19_20_16
 + combinacoes_19_20_2 + combinacoes_19_20_3 + combinacoes_19_20_4
 + combinacoes_19_20_5 + combinacoes_19_20_6 + combinacoes_19_20_7
 + combinacoes_19_20_8 + combinacoes_19_20_9 <= 1
Max_Uma_Sonda_Por_MEdicao20_19_18_21: combinacoes_20_19_18_21_1
 + combinacoes_20_19_18_21_10 + combinacoes_20_19_18_21_11
 + combinacoes_20_19_18_21_12 + combinacoes_20_19_18_21_13
 + combinacoes_20_19_18_21_14 + combinacoes_20_19_18_21_15
 + combinacoes_20_19_18_21_16 + combinacoes_20_19_18_21_2
 + combinacoes_20_19_18_21_3 + combinacoes_20_19_18_21_4
 + combinacoes_20_19_18_21_5 + combinacoes_20_19_18_21_6
 + combinacoes_20_19_18_21_7 + combinacoes_20_19_18_21_8
 + combinacoes_20_19_18_21_9 <= 1
Max_Uma_Sonda_Por_MEdicao9_10: combinacoes_9_10_1 + combinacoes_9_10_10
 + combinacoes_9_10_11 + combinacoes_9_10_12 + combinacoes_9_10_13
 + combinacoes_9_10_14 + combinacoes_9_10_15 + combinacoes_9_10_16
 + combinacoes_9_10_2 + combinacoes_9_10_3 + combinacoes_9_10_4
 + combinacoes_9_10_5 + combinacoes_9_10_6 + combinacoes_9_10_7
 + combinacoes_9_10_8 + combinacoes_9_10_9 <= 1
Max_Uma_Sonda_Por_MEdicao9_10_11: combinacoes_9_10_11_1
 + combinacoes_9_10_11_10 + combinacoes_9_10_11_11 + combinacoes_9_10_11_12
 + combinacoes_9_10_11_13 + combinacoes_9_10_11_14 + combinacoes_9_10_11_15
 + combinacoes_9_10_11_16 + combinacoes_9_10_11_2 + combinacoes_9_10_11_3
 + combinacoes_9_10_11_4 + combinacoes_9_10_11_5 + combinacoes_9_10_11_6
 + combinacoes_9_10_11_7 + combinacoes_9_10_11_8 + combinacoes_9_10_11_9 <= 1
Max_Uma_Sonda_Por_MEdicao9_10_11_18: combinacoes_9_10_11_18_1
 + combinacoes_9_10_11_18_10 + combinacoes_9_10_11_18_11
 + combinacoes_9_10_11_18_12 + combinacoes_9_10_11_18_13
 + combinacoes_9_10_11_18_14 + combinacoes_9_10_11_18_15
 + combinacoes_9_10_11_18_16 + combinacoes_9_10_11_18_2
 + combinacoes_9_10_11_18_3 + combinacoes_9_10_11_18_4
 + combinacoes_9_10_11_18_5 + combinacoes_9_10_11_18_6
 + combinacoes_9_10_11_18_7 + combinacoes_9_10_11_18_8
 + combinacoes_9_10_11_18_9 <= 1
Max_Uma_Sonda_Por_MEdicao9_10_11_18_19: combinacoes_9_10_11_18_19_1
 + combinacoes_9_10_11_18_19_10 + combinacoes_9_10_11_18_19_11
 + combinacoes_9_10_11_18_19_12 + combinacoes_9_10_11_18_19_13
 + combinacoes_9_10_11_18_19_14 + combinacoes_9_10_11_18_19_15
 + combinacoes_9_10_11_18_19_16 + combinacoes_9_10_11_18_19_2
 + combinacoes_9_10_11_18_19_3 + combinacoes_9_10_11_18_19_4
 + combinacoes_9_10_11_18_19_5 + combinacoes_9_10_11_18_19_6
 + combinacoes_9_10_11_18_19_7 + combinacoes_9_10_11_18_19_8
 + combinacoes_9_10_11_18_19_9 <= 1
Max_Uma_Sonda_Por_MEdicao9_10_11_18_19_20: combinacoes_9_10_11_18_19_20_1
 + combinacoes_9_10_11_18_19_20_10 + combinacoes_9_10_11_18_19_20_11
 + combinacoes_9_10_11_18_19_20_12 + combinacoes_9_10_11_18_19_20_13
 + combinacoes_9_10_11_18_19_20_14 + combinacoes_9_10_11_18_19_20_15
 + combinacoes_9_10_11_18_19_20_16 + combinacoes_9_10_11_18_19_20_2
 + combinacoes_9_10_11_18_19_20_3 + combinacoes_9_10_11_18_19_20_4
 + combinacoes_9_10_11_18_19_20_5 + combinacoes_9_10_11_18_19_20_6
 + combinacoes_9_10_11_18_19_20_7 + combinacoes_9_10_11_18_19_20_8
 + combinacoes_9_10_11_18_19_20_9 <= 1
Max_Uma_Sonda_Por_MEdicao9_10_11_18_21: combinacoes_9_10_11_18_21_1
 + combinacoes_9_10_11_18_21_10 + combinacoes_9_10_11_18_21_11
 + combinacoes_9_10_11_18_21_12 + combinacoes_9_10_11_18_21_13
 + combinacoes_9_10_11_18_21_14 + combinacoes_9_10_11_18_21_15
 + combinacoes_9_10_11_18_21_16 + combinacoes_9_10_11_18_21_2
 + combinacoes_9_10_11_18_21_3 + combinacoes_9_10_11_18_21_4
 + combinacoes_9_10_11_18_21_5 + combinacoes_9_10_11_18_21_6
 + combinacoes_9_10_11_18_21_7 + combinacoes_9_10_11_18_21_8
 + combinacoes_9_10_11_18_21_9 <= 1
Max_Uma_Sonda_Por_MEdicao9_10_12: combinacoes_9_10_12_1
 + combinacoes_9_10_12_10 + combinacoes_9_10_12_11 + combinacoes_9_10_12_12
 + combinacoes_9_10_12_13 + combinacoes_9_10_12_14 + combinacoes_9_10_12_15
 + combinacoes_9_10_12_16 + combinacoes_9_10_12_2 + combinacoes_9_10_12_3
 + combinacoes_9_10_12_4 + combinacoes_9_10_12_5 + combinacoes_9_10_12_6
 + combinacoes_9_10_12_7 + combinacoes_9_10_12_8 + combinacoes_9_10_12_9 <= 1
Binaries
combinacoes_10_11_1
combinacoes_10_11_10
combinacoes_10_11_11
combinacoes_10_11_12
combinacoes_10_11_13
combinacoes_10_11_14
combinacoes_10_11_15
combinacoes_10_11_16
combinacoes_10_11_18_1
combinacoes_10_11_18_10
combinacoes_10_11_18_11
combinacoes_10_11_18_12
combinacoes_10_11_18_13
combinacoes_10_11_18_14
combinacoes_10_11_18_15
combinacoes_10_11_18_16
combinacoes_10_11_18_19_1
combinacoes_10_11_18_19_10
combinacoes_10_11_18_19_11
combinacoes_10_11_18_19_12
combinacoes_10_11_18_19_13
combinacoes_10_11_18_19_14
combinacoes_10_11_18_19_15
combinacoes_10_11_18_19_16
combinacoes_10_11_18_19_2
combinacoes_10_11_18_19_20_1
combinacoes_10_11_18_19_20_10
combinacoes_10_11_18_19_20_11
combinacoes_10_11_18_19_20_12
combinacoes_10_11_18_19_20_13
combinacoes_10_11_18_19_20_14
combinacoes_10_11_18_19_20_15
combinacoes_10_11_18_19_20_16
combinacoes_10_11_18_19_20_2
combinacoes_10_11_18_19_20_3
combinacoes_10_11_18_19_20_4
combinacoes_10_11_18_19_20_5
combinacoes_10_11_18_19_20_6
combinacoes_10_11_18_19_20_7
combinacoes_10_11_18_19_20_8
combinacoes_10_11_18_19_20_9
combinacoes_10_11_18_19_3
combinacoes_10_11_18_19_4
combinacoes_10_11_18_19_5
combinacoes_10_11_18_19_6
combinacoes_10_11_18_19_7
combinacoes_10_11_18_19_8
combinacoes_10_11_18_19_9
combinacoes_10_11_18_2
combinacoes_10_11_18_21_1
combinacoes_10_11_18_21_10
combinacoes_10_11_18_21_11
combinacoes_10_11_18_21_12
combinacoes_10_11_18_21_13
combinacoes_10_11_18_21_14
combinacoes_10_11_18_21_15
combinacoes_10_11_18_21_16
combinacoes_10_11_18_21_2
combinacoes_10_11_18_21_3
combinacoes_10_11_18_21_4
combinacoes_10_11_18_21_5
combinacoes_10_11_18_21_6
combinacoes_10_11_18_21_7
combinacoes_10_11_18_21_8
combinacoes_10_11_18_21_9
combinacoes_10_11_18_3
combinacoes_10_11_18_4
combinacoes_10_11_18_5
combinacoes_10_11_18_6
combinacoes_10_11_18_7
combinacoes_10_11_18_8
combinacoes_10_11_18_9
combinacoes_10_11_2
combinacoes_10_11_3
combinacoes_10_11_4
combinacoes_10_11_5
combinacoes_10_11_6
combinacoes_10_11_7
combinacoes_10_11_8
combinacoes_10_11_9
combinacoes_10_12_1
combinacoes_10_12_10
combinacoes_10_12_11
combinacoes_10_12_12
combinacoes_10_12_13
combinacoes_10_12_14
combinacoes_10_12_15
combinacoes_10_12_16
combinacoes_10_12_2
combinacoes_10_12_3
combinacoes_10_12_4
combinacoes_10_12_5
combinacoes_10_12_6
combinacoes_10_12_7
combinacoes_10_12_8
combinacoes_10_12_9
combinacoes_11_10_12_1
combinacoes_11_10_12_10
combinacoes_11_10_12_11
combinacoes_11_10_12_12
combinacoes_11_10_12_13
combinacoes_11_10_12_14
combinacoes_11_10_12_15
combinacoes_11_10_12_16
combinacoes_11_10_12_2
combinacoes_11_10_12_3
combinacoes_11_10_12_4
combinacoes_11_10_12_5
combinacoes_11_10_12_6
combinacoes_11_10_12_7
combinacoes_11_10_12_8
combinacoes_11_10_12_9
combinacoes_11_18_1
combinacoes_11_18_10
combinacoes_11_18_11
combinacoes_11_18_12
combinacoes_11_18_13
combinacoes_11_18_14
combinacoes_11_18_15
combinacoes_11_18_16
combinacoes_11_18_19_1
combinacoes_11_18_19_10
combinacoes_11_18_19_11
combinacoes_11_18_19_12
combinacoes_11_18_19_13
combinacoes_11_18_19_14
combinacoes_11_18_19_15
combinacoes_11_18_19_16
combinacoes_11_18_19_2
combinacoes_11_18_19_20_1
combinacoes_11_18_19_20_10
combinacoes_11_18_19_20_11
combinacoes_11_18_19_20_12
combinacoes_11_18_19_20_13
combinacoes_11_18_19_20_14
combinacoes_11_18_19_20_15
combinacoes_11_18_19_20_16
combinacoes_11_18_19_20_2
combinacoes_11_18_19_20_3
combinacoes_11_18_19_20_4
combinacoes_11_18_19_20_5
combinacoes_11_18_19_20_6
combinacoes_11_18_19_20_7
combinacoes_11_18_19_20_8
combinacoes_11_18_19_20_9
combinacoes_11_18_19_3
combinacoes_11_18_19_4
combinacoes_11_18_19_5
combinacoes_11_18_19_6
combinacoes_11_18_19_7
combinacoes_11_18_19_8
combinacoes_11_18_19_9
combinacoes_11_18_2
combinacoes_11_18_21_1
combinacoes_11_18_21_10
combinacoes_11_18_21_11
combinacoes_11_18_21_12
combinacoes_11_18_21_13
combinacoes_11_18_21_14
combinacoes_11_18_21_15
combinacoes_11_18_21_16
combinacoes_11_18_21_2
combinacoes_11_18_21_3
combinacoes_11_18_21_4
combinacoes_11_18_21_5
combinacoes_11_18_21_6
combinacoes_11_18_21_7
combinacoes_11_18_21_8
combinacoes_11_18_21_9
combinacoes_11_18_3
combinacoes_11_18_4
combinacoes_11_18_5
combinacoes_11_18_6
combinacoes_11_18_7
combinacoes_11_18_8
combinacoes_11_18_9
combinacoes_12_10_11_18_1
combinacoes_12_10_11_18_10
combinacoes_12_10_11_18_11
combinacoes_12_10_11_18_12
combinacoes_12_10_11_18_13
combinacoes_12_10_11_18_14
combinacoes_12_10_11_18_15
combinacoes_12_10_11_18_16
combinacoes_12_10_11_18_19_1
combinacoes_12_10_11_18_19_10
combinacoes_12_10_11_18_19_11
combinacoes_12_10_11_18_19_12
combinacoes_12_10_11_18_19_13
combinacoes_12_10_11_18_19_14
combinacoes_12_10_11_18_19_15
combinacoes_12_10_11_18_19_16
combinacoes_12_10_11_18_19_2
combinacoes_12_10_11_18_19_20_1
combinacoes_12_10_11_18_19_20_10
combinacoes_12_10_11_18_19_20_11
combinacoes_12_10_11_18_19_20_12
combinacoes_12_10_11_18_19_20_13
combinacoes_12_10_11_18_19_20_14
combinacoes_12_10_11_18_19_20_15
combinacoes_12_10_11_18_19_20_16
combinacoes_12_10_11_18_19_20_2
combinacoes_12_10_11_18_19_20_3
combinacoes_12_10_11_18_19_20_4
combinacoes_12_10_11_18_19_20_5
combinacoes_12_10_11_18_19_20_6
combinacoes_12_10_11_18_19_20_7
combinacoes_12_10_11_18_19_20_8
combinacoes_12_10_11_18_19_20_9
combinacoes_12_10_11_18_19_3
combinacoes_12_10_11_18_19_4
combinacoes_12_10_11_18_19_5
combinacoes_12_10_11_18_19_6
combinacoes_12_10_11_18_19_7
combinacoes_12_10_11_18_19_8
combinacoes_12_10_11_18_19_9
combinacoes_12_10_11_18_2
combinacoes_12_10_11_18_21_1
combinacoes_12_10_11_18_21_10
combinacoes_12_10_11_18_21_11
combinacoes_12_10_11_18_21_12
combinacoes_12_10_11_18_21_13
combinacoes_12_10_11_18_21_14
combinacoes_12_10_11_18_21_15
combinacoes_12_10_11_18_21_16
combinacoes_12_10_11_18_21_2
combinacoes_12_10_11_18_21_3
combinacoes_12_10_11_18_21_4
combinacoes_12_10_11_18_21_5
combinacoes_12_10_11_18_21_6
combinacoes_12_10_11_18_21_7
combinacoes_12_10_11_18_21_8
combinacoes_12_10_11_18_21_9
combinacoes_12_10_11_18_3
combinacoes_12_10_11_18_4
combinacoes_12_10_11_18_5
combinacoes_12_10_11_18_6
combinacoes_12_10_11_18_7
combinacoes_12_10_11_18_8
combinacoes_12_10_11_18_9
combinacoes_18_19_1
combinacoes_18_19_10
combinacoes_18_19_11
combinacoes_18_19_12
combinacoes_18_19_13
combinacoes_18_19_14
combinacoes_18_19_15
combinacoes_18_19_16
combinacoes_18_19_2
combinacoes_18_19_20_1
combinacoes_18_19_20_10
combinacoes_18_19_20_11
combinacoes_18_19_20_12
combinacoes_18_19_20_13
combinacoes_18_19_20_14
combinacoes_18_19_20_15
combinacoes_18_19_20_16
combinacoes_18_19_20_2
combinacoes_18_19_20_3
combinacoes_18_19_20_4
combinacoes_18_19_20_5
combinacoes_18_19_20_6
combinacoes_18_19_20_7
combinacoes_18_19_20_8
combinacoes_18_19_20_9
combinacoes_18_19_3
combinacoes_18_19_4
combinacoes_18_19_5
combinacoes_18_19_6
combinacoes_18_19_7
combinacoes_18_19_8
combinacoes_18_19_9
combinacoes_18_21_1
combinacoes_18_21_10
combinacoes_18_21_11
combinacoes_18_21_12
combinacoes_18_21_13
combinacoes_18_21_14
combinacoes_18_21_15
combinacoes_18_21_16
combinacoes_18_21_2
combinacoes_18_21_3
combinacoes_18_21_4
combinacoes_18_21_5
combinacoes_18_21_6
combinacoes_18_21_7
combinacoes_18_21_8
combinacoes_18_21_9
combinacoes_19_18_21_1
combinacoes_19_18_21_10
combinacoes_19_18_21_11
combinacoes_19_18_21_12
combinacoes_19_18_21_13
combinacoes_19_18_21_14
combinacoes_19_18_21_15
combinacoes_19_18_21_16
combinacoes_19_18_21_2
combinacoes_19_18_21_3
combinacoes_19_18_21_4
combinacoes_19_18_21_5
combinacoes_19_18_21_6
combinacoes_19_18_21_7
combinacoes_19_18_21_8
combinacoes_19_18_21_9
combinacoes_19_20_1
combinacoes_19_20_10
combinacoes_19_20_11
combinacoes_19_20_12
combinacoes_19_20_13
combinacoes_19_20_14
combinacoes_19_20_15
combinacoes_19_20_16
combinacoes_19_20_2
combinacoes_19_20_3
combinacoes_19_20_4
combinacoes_19_20_5
combinacoes_19_20_6
combinacoes_19_20_7
combinacoes_19_20_8
combinacoes_19_20_9
combinacoes_20_19_18_21_1
combinacoes_20_19_18_21_10
combinacoes_20_19_18_21_11
combinacoes_20_19_18_21_12
combinacoes_20_19_18_21_13
combinacoes_20_19_18_21_14
combinacoes_20_19_18_21_15
combinacoes_20_19_18_21_16
combinacoes_20_19_18_21_2
combinacoes_20_19_18_21_3
combinacoes_20_19_18_21_4
combinacoes_20_19_18_21_5
combinacoes_20_19_18_21_6
combinacoes_20_19_18_21_7
combinacoes_20_19_18_21_8
combinacoes_20_19_18_21_9
combinacoes_9_10_1
combinacoes_9_10_10
combinacoes_9_10_11
combinacoes_9_10_11_1
combinacoes_9_10_11_10
combinacoes_9_10_11_11
combinacoes_9_10_11_12
combinacoes_9_10_11_13
combinacoes_9_10_11_14
combinacoes_9_10_11_15
combinacoes_9_10_11_16
combinacoes_9_10_11_18_1
combinacoes_9_10_11_18_10
combinacoes_9_10_11_18_11
combinacoes_9_10_11_18_12
combinacoes_9_10_11_18_13
combinacoes_9_10_11_18_14
combinacoes_9_10_11_18_15
combinacoes_9_10_11_18_16
combinacoes_9_10_11_18_19_1
combinacoes_9_10_11_18_19_10
combinacoes_9_10_11_18_19_11
combinacoes_9_10_11_18_19_12
combinacoes_9_10_11_18_19_13
combinacoes_9_10_11_18_19_14
combinacoes_9_10_11_18_19_15
combinacoes_9_10_11_18_19_16
combinacoes_9_10_11_18_19_2
combinacoes_9_10_11_18_19_20_1
combinacoes_9_10_11_18_19_20_10
combinacoes_9_10_11_18_19_20_11
combinacoes_9_10_11_18_19_20_12
combinacoes_9_10_11_18_19_20_13
combinacoes_9_10_11_18_19_20_14
combinacoes_9_10_11_18_19_20_15
combinacoes_9_10_11_18_19_20_16
combinacoes_9_10_11_18_19_20_2
combinacoes_9_10_11_18_19_20_3
combinacoes_9_10_11_18_19_20_4
combinacoes_9_10_11_18_19_20_5
combinacoes_9_10_11_18_19_20_6
combinacoes_9_10_11_18_19_20_7
combinacoes_9_10_11_18_19_20_8
combinacoes_9_10_11_18_19_20_9
combinacoes_9_10_11_18_19_3
combinacoes_9_10_11_18_19_4
combinacoes_9_10_11_18_19_5
combinacoes_9_10_11_18_19_6
combinacoes_9_10_11_18_19_7
combinacoes_9_10_11_18_19_8
combinacoes_9_10_11_18_19_9
combinacoes_9_10_11_18_2
combinacoes_9_10_11_18_21_1
combinacoes_9_10_11_18_21_10
combinacoes_9_10_11_18_21_11
combinacoes_9_10_11_18_21_12
combinacoes_9_10_11_18_21_13
combinacoes_9_10_11_18_21_14
combinacoes_9_10_11_18_21_15
combinacoes_9_10_11_18_21_16
combinacoes_9_10_11_18_21_2
combinacoes_9_10_11_18_21_3
combinacoes_9_10_11_18_21_4
combinacoes_9_10_11_18_21_5
combinacoes_9_10_11_18_21_6
combinacoes_9_10_11_18_21_7
combinacoes_9_10_11_18_21_8
combinacoes_9_10_11_18_21_9
combinacoes_9_10_11_18_3
combinacoes_9_10_11_18_4
combinacoes_9_10_11_18_5
combinacoes_9_10_11_18_6
combinacoes_9_10_11_18_7
combinacoes_9_10_11_18_8
combinacoes_9_10_11_18_9
combinacoes_9_10_11_2
combinacoes_9_10_11_3
combinacoes_9_10_11_4
combinacoes_9_10_11_5
combinacoes_9_10_11_6
combinacoes_9_10_11_7
combinacoes_9_10_11_8
combinacoes_9_10_11_9
combinacoes_9_10_12
combinacoes_9_10_12_1
combinacoes_9_10_12_10
combinacoes_9_10_12_11
combinacoes_9_10_12_12
combinacoes_9_10_12_13
combinacoes_9_10_12_14
combinacoes_9_10_12_15
combinacoes_9_10_12_16
combinacoes_9_10_12_2
combinacoes_9_10_12_3
combinacoes_9_10_12_4
combinacoes_9_10_12_5
combinacoes_9_10_12_6
combinacoes_9_10_12_7
combinacoes_9_10_12_8
combinacoes_9_10_12_9
combinacoes_9_10_13
combinacoes_9_10_14
combinacoes_9_10_15
combinacoes_9_10_16
combinacoes_9_10_2
combinacoes_9_10_3
combinacoes_9_10_4
combinacoes_9_10_5
combinacoes_9_10_6
combinacoes_9_10_7
combinacoes_9_10_8
combinacoes_9_10_9
End
